(declare-fun temp214_1 () (_ BitVec 64))
(declare-fun var68212 () (_ BitVec 64))
(declare-fun temp214_2 () (_ BitVec 64))
(declare-fun var68216 () (_ BitVec 64))
(declare-fun temp214_3 () (_ BitVec 64))
(declare-fun temp214_5 () (_ BitVec 64))
(declare-fun temp214_4 () (_ BitVec 64))
(declare-fun temp214_6 () (_ BitVec 64))
(declare-fun var68227 () (_ BitVec 64))
(declare-fun var68230 () (_ BitVec 64))
(declare-fun temp214_7 () (_ BitVec 64))
(declare-fun var2166200 () (_ BitVec 64))
(assert (= temp214_1 #x0000000000000004))
(assert (= var68212 temp214_1))
(assert (= temp214_2 #x0000000000000004))
(assert (= var68216 (ite (= var68212 temp214_2) #x0000000000000001 #x0000000000000000)))
(assert (= temp214_3 #x0000000000000001))
(assert (= var68216 temp214_3))
(assert (= temp214_5 #x0000000000000000))
(assert (= temp214_4 temp214_5))
(assert (= temp214_6 #x0000000000000000))
(assert (= var68227 temp214_6))
(assert (= var68230 var68227))
(assert (= temp214_7 #x0000000000000000))
(assert (= var2166200 temp214_7))
(model-add temp214_1 () (_ BitVec 64) #x0000000000000004)
(model-add var68212 () (_ BitVec 64) #x0000000000000004)
(model-add temp214_2 () (_ BitVec 64) #x0000000000000004)
(model-add var68216 () (_ BitVec 64) #x0000000000000001)
(model-add temp214_3 () (_ BitVec 64) #x0000000000000001)






